data;

set A := 350426011 191831198 474092402 927391382 733640801 100877253 599195339 252124521 717718681 388236698 969731179 627899595 62094314 199282543 384179001 249848248 746510730 148545402 259033293 8860206 538391170 819605779 907073456 296906095 614667246 568824052 151198110 321676861 646039354 22857591 492540358 427436829 612032613 801851099 578106632 243912340 201231425 167316351 613603382 358664044 621333680 664053285 911225939 418195183 964218088 358820400 28011222 427830570 607015856 574698469 808172519 306735915 729791904 523917997 631897249 626604355 687559012 537731921 474906958 569465157 462055417 136255036 847858094 682189508 975173358 362232764 106007855 145178456 209069220 685401153 211273525 126217945 913504398 295215772 497869139 710803874 465049969 797303873 961997712 297709775 309230501 754228101 807330979 531931775 648616273 213130207 64705079 654389778;
param T := 22000000000;

end;
